NAME : 10_3_3_3_(50).dat
COMMENT : Henke, Speranza, Wäscher, 2015
TYPE : MCVRP
DIMENSION : 11
EDGE_WEIGHT_TYPE : DISTANCE_MATRIX
CAPACITY : 1000
VEHICLES : 3
PRODUCT TYPES : 3
COMPARTMENTS : 3
NODE_COORD_SECTION
1 50 50
2 89.15 4.85
3 65.46 99.66
4 1.45 40.15
5 24.02 22.95
6 53.24 2.55
7 39.86 37.43
8 61.03 92.23
9 20.83 41.53
10 82.96 98.13
11 86.27 82.27
DEMAND_SECTION
1 0 0 0
2 86 63 59
3 90 63 67
4 179 52 45
5 93 84 28
6 15 55 57
7 26 23 37
8 159 2 14
9 0 76 4
10 108 22 21
11 95 69 8
DEPOT_SECTION
1
EOF